50
    1   412   428
    2   190   200
    3   525   558
    4   566   559
    5   315   328
    6   126   166
    7   444   449
    8   291   344
    9   363   393
   10    66    70
   11   248   240
   12   185   167
   13   169   168
   14   571   528
   15   389   425
   16   202   217
   17   357   417
   18     1    28
   19   429   437
   20   132   146
   21     1    49
   22   279   308
   23   379   376
   24    89   107
   25   289   233
   26   105    92
   27   518   526
   28   431   380
   29   235   194
   30   374   331
   31   286   326
   32     1    40
   33    75    72
   34   265   241
   35   411   464
   36   318   333
   37   228   256
   38   423   417
   39   367   320
   40   436   395
   41   519   515
   42   531   518
   43     1    18
   44   519   530
   45   416   411
   46   482   479
   47   506   510
   48    98    46
   49   424   371
   50   464   428
601
